Start evaluate stage for setting _10000_5_4q_mnl...

Evaluating using MNL with setting tag _10000_5_4q_mnl.
 Results stored at /export/storage_covidvaccine/Result/MaxVaxDistLogLin/M5_K10000_4q/HighSchools

Set parameter ServerPassword
Set parameter CSQueueTimeout to value 120
Set parameter CSIdleTimeout to value 60
Set parameter ServerTimeout to value 10
Set parameter TokenServer to value "164.67.163.231"
Set parameter MIPFocus to value 3
Set parameter MIPGap to value 0.005
Set parameter TimeLimit to value 21600
Gurobi Optimizer version 10.0.1 build v10.0.1rc0 (linux64)

CPU model: AMD EPYC 7742 64-Core Processor, instruction set [SSE2|AVX|AVX2]
Thread count: 128 physical cores, 256 logical processors, using up to 32 threads

Optimize a model with 85812375 rows, 42903525 columns and 85839651 nonzeros
Model fingerprint: 0xaa764945
Coefficient statistics:
  Matrix range     [3e-01, 1e+04]
  Objective range  [3e-01, 1e+04]
  Bounds range     [1e+00, 1e+00]
  RHS range        [1e+00, 1e+04]
Presolve removed 1290 rows and 0 columns (presolve time = 5s) ...
Presolve removed 85811074 rows and 42889203 columns (presolve time = 11s) ...
Presolve removed 85812375 rows and 42903525 columns (presolve time = 16s) ...
Presolve removed 85812375 rows and 42903525 columns
Presolve time: 18.64s
Presolve: All rows and columns removed
Iteration    Objective       Primal Inf.    Dual Inf.      Time
       0    3.2682979e+07   0.000000e+00   0.000000e+00     43s

Solved in 0 iterations and 42.64 seconds (51.24 work units)
Optimal objective  3.268297888e+07
Evaluation finished!

Finished evaluate stage for setting _10000_5_4q_mnl!

